p cnf 320 893
a 1 2 3 4 5 6 7 8 9 10 11 12 13 14 15 16 17 18 19 20 21 22 23 24 25 26 27 28 29 30 31 32 0
e 33 34 35 36 37 38 39 40 41 42 43 44 45 46 47 48 49 50 51 52 53 54 55 56 57 58 59 60 61 62 63 64 65 66 67 68 69 70 71 72 73 74 75 76 77 78 79 80 81 82 83 84 85 86 87 88 89 90 91 92 93 94 95 96 97 98 99 100 101 102 103 104 105 106 107 108 109 110 111 112 113 114 115 116 117 118 119 120 121 122 123 124 125 126 127 128 129 130 131 132 133 134 135 136 137 138 139 140 141 142 143 144 145 146 147 148 149 150 151 152 153 154 155 156 157 158 159 160 161 162 163 164 165 166 167 168 169 170 171 172 173 174 175 176 177 178 179 180 181 182 183 184 185 186 187 188 189 190 191 192 193 194 195 196 197 198 199 200 201 202 203 204 205 206 207 208 209 210 211 212 213 214 215 216 217 218 219 220 221 222 223 224 225 226 227 228 229 230 231 232 233 234 235 236 237 238 239 240 241 242 243 244 245 246 247 248 249 250 251 252 253 254 255 256 257 258 259 260 261 262 263 264 265 266 267 268 269 270 271 272 273 274 275 276 277 278 279 280 281 282 283 284 285 286 287 288 289 290 291 292 293 294 295 296 297 298 299 300 301 302 303 304 305 306 307 308 309 310 311 312 313 314 315 316 317 318 319 0
-1 -57 0
-2 -57 0
-3 -57 0
1 2 3 57 0
-4 -58 0
-5 -58 0
-6 -58 0
4 5 6 58 0
57 -59 0
58 -59 0
-7 -59 0
-8 -59 0
7 8 59 -57 -58 0
-7 -8 -60 0
7 8 -60 0
8 60 -7 0
7 60 -8 0
61 -1 0
1 -61 0
-2 -61 -62 0
2 61 -62 0
61 62 -2 0
2 62 -61 0
2 -63 0
61 -63 0
63 -2 -61 0
64 -63 0
63 -64 0
-3 -64 -65 0
3 64 -65 0
64 65 -3 0
3 65 -64 0
3 -66 0
64 -66 0
66 -3 -64 0
67 -66 0
66 -67 0
-60 -68 0
-1 -68 0
60 1 68 0
60 -69 0
1 -69 0
69 -60 -1 0
70 -68 0
70 -69 0
68 69 -70 0
-60 -71 0
62 -71 0
60 71 -62 0
60 -72 0
2 -72 0
72 -60 -2 0
73 -71 0
73 -72 0
71 72 -73 0
-60 -74 0
65 -74 0
60 74 -65 0
60 -75 0
3 -75 0
75 -60 -3 0
76 -74 0
76 -75 0
74 75 -76 0
-9 -70 -77 0
9 70 -77 0
70 77 -9 0
9 77 -70 0
-10 -73 -78 0
10 73 -78 0
73 78 -10 0
10 78 -73 0
-11 -76 -79 0
11 76 -79 0
76 79 -11 0
11 79 -76 0
-77 -80 0
-78 -80 0
-79 -80 0
77 78 79 80 0
81 -4 0
4 -81 0
-5 -81 -82 0
5 81 -82 0
81 82 -5 0
5 82 -81 0
5 -83 0
81 -83 0
83 -5 -81 0
84 -83 0
83 -84 0
-6 -84 -85 0
6 84 -85 0
84 85 -6 0
6 85 -84 0
6 -86 0
84 -86 0
86 -6 -84 0
87 -86 0
86 -87 0
-60 -88 0
4 -88 0
60 88 -4 0
60 -89 0
-4 -89 0
4 89 -60 0
90 -88 0
90 -89 0
88 89 -90 0
-60 -91 0
5 -91 0
60 91 -5 0
60 -92 0
82 -92 0
92 -60 -82 0
93 -91 0
93 -92 0
91 92 -93 0
-60 -94 0
6 -94 0
60 94 -6 0
60 -95 0
85 -95 0
95 -60 -85 0
96 -94 0
96 -95 0
94 95 -96 0
-12 -90 -97 0
12 90 -97 0
90 97 -12 0
12 97 -90 0
-13 -93 -98 0
13 93 -98 0
93 98 -13 0
13 98 -93 0
-14 -96 -99 0
14 96 -99 0
96 99 -14 0
14 99 -96 0
-97 -100 0
-98 -100 0
-99 -100 0
97 98 99 100 0
8 -15 -101 0
15 -8 -101 0
101 -15 -8 0
15 8 101 0
-16 -7 -102 0
16 7 -102 0
7 102 -16 0
16 102 -7 0
80 -103 0
100 -103 0
-101 -103 0
-102 -103 0
101 102 103 -80 -100 0
-15 -16 -104 0
15 16 -104 0
16 104 -15 0
15 104 -16 0
105 -9 0
9 -105 0
-10 -105 -106 0
10 105 -106 0
105 106 -10 0
10 106 -105 0
10 -107 0
105 -107 0
107 -10 -105 0
108 -107 0
107 -108 0
-11 -108 -109 0
11 108 -109 0
108 109 -11 0
11 109 -108 0
11 -110 0
108 -110 0
110 -11 -108 0
111 -110 0
110 -111 0
-104 -112 0
-9 -112 0
104 9 112 0
104 -113 0
9 -113 0
113 -104 -9 0
114 -112 0
114 -113 0
112 113 -114 0
-104 -115 0
106 -115 0
104 115 -106 0
104 -116 0
10 -116 0
116 -104 -10 0
117 -115 0
117 -116 0
115 116 -117 0
-104 -118 0
109 -118 0
104 118 -109 0
104 -119 0
11 -119 0
119 -104 -11 0
120 -118 0
120 -119 0
118 119 -120 0
-17 -114 -121 0
17 114 -121 0
114 121 -17 0
17 121 -114 0
-18 -117 -122 0
18 117 -122 0
117 122 -18 0
18 122 -117 0
-19 -120 -123 0
19 120 -123 0
120 123 -19 0
19 123 -120 0
-121 -124 0
-122 -124 0
-123 -124 0
121 122 123 124 0
125 -12 0
12 -125 0
-13 -125 -126 0
13 125 -126 0
125 126 -13 0
13 126 -125 0
13 -127 0
125 -127 0
127 -13 -125 0
128 -127 0
127 -128 0
-14 -128 -129 0
14 128 -129 0
128 129 -14 0
14 129 -128 0
14 -130 0
128 -130 0
130 -14 -128 0
131 -130 0
130 -131 0
-104 -132 0
12 -132 0
104 132 -12 0
104 -133 0
-12 -133 0
12 133 -104 0
134 -132 0
134 -133 0
132 133 -134 0
-104 -135 0
13 -135 0
104 135 -13 0
104 -136 0
126 -136 0
136 -104 -126 0
137 -135 0
137 -136 0
135 136 -137 0
-104 -138 0
14 -138 0
104 138 -14 0
104 -139 0
129 -139 0
139 -104 -129 0
140 -138 0
140 -139 0
138 139 -140 0
-20 -134 -141 0
20 134 -141 0
134 141 -20 0
20 141 -134 0
-21 -137 -142 0
21 137 -142 0
137 142 -21 0
21 142 -137 0
-22 -140 -143 0
22 140 -143 0
140 143 -22 0
22 143 -140 0
-141 -144 0
-142 -144 0
-143 -144 0
141 142 143 144 0
16 -23 -145 0
23 -16 -145 0
145 -23 -16 0
23 16 145 0
-24 -15 -146 0
24 15 -146 0
15 146 -24 0
24 146 -15 0
124 -147 0
144 -147 0
-145 -147 0
-146 -147 0
145 146 147 -124 -144 0
-23 -24 -148 0
23 24 -148 0
24 148 -23 0
23 148 -24 0
149 -17 0
17 -149 0
-18 -149 -150 0
18 149 -150 0
149 150 -18 0
18 150 -149 0
18 -151 0
149 -151 0
151 -18 -149 0
152 -151 0
151 -152 0
-19 -152 -153 0
19 152 -153 0
152 153 -19 0
19 153 -152 0
19 -154 0
152 -154 0
154 -19 -152 0
155 -154 0
154 -155 0
-148 -156 0
-17 -156 0
148 17 156 0
148 -157 0
17 -157 0
157 -148 -17 0
158 -156 0
158 -157 0
156 157 -158 0
-148 -159 0
150 -159 0
148 159 -150 0
148 -160 0
18 -160 0
160 -148 -18 0
161 -159 0
161 -160 0
159 160 -161 0
-148 -162 0
153 -162 0
148 162 -153 0
148 -163 0
19 -163 0
163 -148 -19 0
164 -162 0
164 -163 0
162 163 -164 0
-25 -158 -165 0
25 158 -165 0
158 165 -25 0
25 165 -158 0
-26 -161 -166 0
26 161 -166 0
161 166 -26 0
26 166 -161 0
-27 -164 -167 0
27 164 -167 0
164 167 -27 0
27 167 -164 0
-165 -168 0
-166 -168 0
-167 -168 0
165 166 167 168 0
169 -20 0
20 -169 0
-21 -169 -170 0
21 169 -170 0
169 170 -21 0
21 170 -169 0
21 -171 0
169 -171 0
171 -21 -169 0
172 -171 0
171 -172 0
-22 -172 -173 0
22 172 -173 0
172 173 -22 0
22 173 -172 0
22 -174 0
172 -174 0
174 -22 -172 0
175 -174 0
174 -175 0
-148 -176 0
20 -176 0
148 176 -20 0
148 -177 0
-20 -177 0
20 177 -148 0
178 -176 0
178 -177 0
176 177 -178 0
-148 -179 0
21 -179 0
148 179 -21 0
148 -180 0
170 -180 0
180 -148 -170 0
181 -179 0
181 -180 0
179 180 -181 0
-148 -182 0
22 -182 0
148 182 -22 0
148 -183 0
173 -183 0
183 -148 -173 0
184 -182 0
184 -183 0
182 183 -184 0
-28 -178 -185 0
28 178 -185 0
178 185 -28 0
28 185 -178 0
-29 -181 -186 0
29 181 -186 0
181 186 -29 0
29 186 -181 0
-30 -184 -187 0
30 184 -187 0
184 187 -30 0
30 187 -184 0
-185 -188 0
-186 -188 0
-187 -188 0
185 186 187 188 0
24 -31 -189 0
31 -24 -189 0
189 -31 -24 0
31 24 189 0
-32 -23 -190 0
32 23 -190 0
23 190 -32 0
32 190 -23 0
168 -191 0
188 -191 0
-189 -191 0
-190 -191 0
189 190 191 -168 -188 0
59 -192 0
103 -192 0
147 -192 0
191 -192 0
192 -59 -103 -147 -191 0
-33 -193 0
-34 -193 0
-35 -193 0
33 34 35 193 0
-36 -194 0
-37 -194 0
-38 -194 0
36 37 38 194 0
193 -195 0
194 -195 0
-39 -195 0
-40 -195 0
39 40 195 -193 -194 0
-39 -40 -196 0
39 40 -196 0
40 196 -39 0
39 196 -40 0
197 -33 0
33 -197 0
-34 -197 -198 0
34 197 -198 0
197 198 -34 0
34 198 -197 0
34 -199 0
197 -199 0
199 -34 -197 0
200 -199 0
199 -200 0
-35 -200 -201 0
35 200 -201 0
200 201 -35 0
35 201 -200 0
35 -202 0
200 -202 0
202 -35 -200 0
203 -202 0
202 -203 0
-196 -204 0
-33 -204 0
196 33 204 0
196 -205 0
33 -205 0
205 -196 -33 0
206 -204 0
206 -205 0
204 205 -206 0
-196 -207 0
198 -207 0
196 207 -198 0
196 -208 0
34 -208 0
208 -196 -34 0
209 -207 0
209 -208 0
207 208 -209 0
-196 -210 0
201 -210 0
196 210 -201 0
196 -211 0
35 -211 0
211 -196 -35 0
212 -210 0
212 -211 0
210 211 -212 0
-41 -206 -213 0
41 206 -213 0
206 213 -41 0
41 213 -206 0
-42 -209 -214 0
42 209 -214 0
209 214 -42 0
42 214 -209 0
-43 -212 -215 0
43 212 -215 0
212 215 -43 0
43 215 -212 0
-213 -216 0
-214 -216 0
-215 -216 0
213 214 215 216 0
217 -36 0
36 -217 0
-37 -217 -218 0
37 217 -218 0
217 218 -37 0
37 218 -217 0
37 -219 0
217 -219 0
219 -37 -217 0
220 -219 0
219 -220 0
-38 -220 -221 0
38 220 -221 0
220 221 -38 0
38 221 -220 0
38 -222 0
220 -222 0
222 -38 -220 0
223 -222 0
222 -223 0
-196 -224 0
36 -224 0
196 224 -36 0
196 -225 0
-36 -225 0
36 225 -196 0
226 -224 0
226 -225 0
224 225 -226 0
-196 -227 0
37 -227 0
196 227 -37 0
196 -228 0
218 -228 0
228 -196 -218 0
229 -227 0
229 -228 0
227 228 -229 0
-196 -230 0
38 -230 0
196 230 -38 0
196 -231 0
221 -231 0
231 -196 -221 0
232 -230 0
232 -231 0
230 231 -232 0
-44 -226 -233 0
44 226 -233 0
226 233 -44 0
44 233 -226 0
-45 -229 -234 0
45 229 -234 0
229 234 -45 0
45 234 -229 0
-46 -232 -235 0
46 232 -235 0
232 235 -46 0
46 235 -232 0
-233 -236 0
-234 -236 0
-235 -236 0
233 234 235 236 0
40 -47 -237 0
47 -40 -237 0
237 -47 -40 0
47 40 237 0
-48 -39 -238 0
48 39 -238 0
39 238 -48 0
48 238 -39 0
216 -239 0
236 -239 0
-237 -239 0
-238 -239 0
237 238 239 -216 -236 0
-47 -48 -240 0
47 48 -240 0
48 240 -47 0
47 240 -48 0
241 -41 0
41 -241 0
-42 -241 -242 0
42 241 -242 0
241 242 -42 0
42 242 -241 0
42 -243 0
241 -243 0
243 -42 -241 0
244 -243 0
243 -244 0
-43 -244 -245 0
43 244 -245 0
244 245 -43 0
43 245 -244 0
43 -246 0
244 -246 0
246 -43 -244 0
247 -246 0
246 -247 0
-240 -248 0
-41 -248 0
240 41 248 0
240 -249 0
41 -249 0
249 -240 -41 0
250 -248 0
250 -249 0
248 249 -250 0
-240 -251 0
242 -251 0
240 251 -242 0
240 -252 0
42 -252 0
252 -240 -42 0
253 -251 0
253 -252 0
251 252 -253 0
-240 -254 0
245 -254 0
240 254 -245 0
240 -255 0
43 -255 0
255 -240 -43 0
256 -254 0
256 -255 0
254 255 -256 0
-49 -250 -257 0
49 250 -257 0
250 257 -49 0
49 257 -250 0
-50 -253 -258 0
50 253 -258 0
253 258 -50 0
50 258 -253 0
-51 -256 -259 0
51 256 -259 0
256 259 -51 0
51 259 -256 0
-257 -260 0
-258 -260 0
-259 -260 0
257 258 259 260 0
261 -44 0
44 -261 0
-45 -261 -262 0
45 261 -262 0
261 262 -45 0
45 262 -261 0
45 -263 0
261 -263 0
263 -45 -261 0
264 -263 0
263 -264 0
-46 -264 -265 0
46 264 -265 0
264 265 -46 0
46 265 -264 0
46 -266 0
264 -266 0
266 -46 -264 0
267 -266 0
266 -267 0
-240 -268 0
44 -268 0
240 268 -44 0
240 -269 0
-44 -269 0
44 269 -240 0
270 -268 0
270 -269 0
268 269 -270 0
-240 -271 0
45 -271 0
240 271 -45 0
240 -272 0
262 -272 0
272 -240 -262 0
273 -271 0
273 -272 0
271 272 -273 0
-240 -274 0
46 -274 0
240 274 -46 0
240 -275 0
265 -275 0
275 -240 -265 0
276 -274 0
276 -275 0
274 275 -276 0
-52 -270 -277 0
52 270 -277 0
270 277 -52 0
52 277 -270 0
-53 -273 -278 0
53 273 -278 0
273 278 -53 0
53 278 -273 0
-54 -276 -279 0
54 276 -279 0
276 279 -54 0
54 279 -276 0
-277 -280 0
-278 -280 0
-279 -280 0
277 278 279 280 0
48 -55 -281 0
55 -48 -281 0
281 -55 -48 0
55 48 281 0
-56 -47 -282 0
56 47 -282 0
47 282 -56 0
56 282 -47 0
260 -283 0
280 -283 0
-281 -283 0
-282 -283 0
281 282 283 -260 -280 0
195 -284 0
239 -284 0
283 -284 0
284 -195 -239 -283 0
-25 -33 -285 0
25 33 -285 0
33 285 -25 0
25 285 -33 0
-26 -34 -286 0
26 34 -286 0
34 286 -26 0
26 286 -34 0
-27 -35 -287 0
27 35 -287 0
35 287 -27 0
27 287 -35 0
-285 -288 0
-286 -288 0
-287 -288 0
285 286 287 288 0
-28 -36 -289 0
28 36 -289 0
36 289 -28 0
28 289 -36 0
-29 -37 -290 0
29 37 -290 0
37 290 -29 0
29 290 -37 0
-30 -38 -291 0
30 38 -291 0
38 291 -30 0
30 291 -38 0
-289 -292 0
-290 -292 0
-291 -292 0
289 290 291 292 0
-31 -39 -293 0
31 39 -293 0
39 293 -31 0
31 293 -39 0
-32 -40 -294 0
32 40 -294 0
40 294 -32 0
32 294 -40 0
288 -295 0
292 -295 0
-293 -295 0
-294 -295 0
293 294 295 -288 -292 0
-25 -41 -296 0
25 41 -296 0
41 296 -25 0
25 296 -41 0
-26 -42 -297 0
26 42 -297 0
42 297 -26 0
26 297 -42 0
-27 -43 -298 0
27 43 -298 0
43 298 -27 0
27 298 -43 0
-296 -299 0
-297 -299 0
-298 -299 0
296 297 298 299 0
-28 -44 -300 0
28 44 -300 0
44 300 -28 0
28 300 -44 0
-29 -45 -301 0
29 45 -301 0
45 301 -29 0
29 301 -45 0
-30 -46 -302 0
30 46 -302 0
46 302 -30 0
30 302 -46 0
-300 -303 0
-301 -303 0
-302 -303 0
300 301 302 303 0
-31 -47 -304 0
31 47 -304 0
47 304 -31 0
31 304 -47 0
-32 -48 -305 0
32 48 -305 0
48 305 -32 0
32 305 -48 0
299 -306 0
303 -306 0
-304 -306 0
-305 -306 0
304 305 306 -299 -303 0
-25 -49 -307 0
25 49 -307 0
49 307 -25 0
25 307 -49 0
-26 -50 -308 0
26 50 -308 0
50 308 -26 0
26 308 -50 0
-27 -51 -309 0
27 51 -309 0
51 309 -27 0
27 309 -51 0
-307 -310 0
-308 -310 0
-309 -310 0
307 308 309 310 0
-28 -52 -311 0
28 52 -311 0
52 311 -28 0
28 311 -52 0
-29 -53 -312 0
29 53 -312 0
53 312 -29 0
29 312 -53 0
-30 -54 -313 0
30 54 -313 0
54 313 -30 0
30 313 -54 0
-311 -314 0
-312 -314 0
-313 -314 0
311 312 313 314 0
-31 -55 -315 0
31 55 -315 0
55 315 -31 0
31 315 -55 0
-32 -56 -316 0
32 56 -316 0
56 316 -32 0
32 316 -56 0
310 -317 0
314 -317 0
-315 -317 0
-316 -317 0
315 316 317 -310 -314 0
318 -295 0
318 -306 0
318 -317 0
295 306 317 -318 0
284 -319 0
318 -319 0
319 -284 -318 0
319 -192 0
